(declare-const term_to_project_onto3_integralized Int)
(declare-const term_to_project_onto_integralized Int)
(declare-const x Int)
(declare-const term_to_project_onto6_integralized Int)
(declare-const term_to_project_onto7_integralized Int)
(declare-const term_to_project_onto4_integralized Int)
(declare-const term_to_project_onto2_integralized Int)
(declare-const j___0 Int)
(declare-const term_to_project_onto5_integralized Int)
(declare-const term_to_project_onto1_integralized Int)
(declare-const i Int)
(declare-const term_to_project_onto0_integralized Int)
(declare-const k Int)
(declare-const tmp___1 Int)
(declare-const y Int)
(assert (exists
         ((|tmp___1'?1?1| Int) (|j___0'?2?2| Int) (|w'?3?3| Int)
            (|z'?4?4| Int) (havoc?5?5 Int) (|tmp___0'?6?6| Int)
            (|x'?7?7| Int) (|y'?8?8| Int) (K?9?9 Int) (phi_y?10?10 Int)
            (phi_x?11?11 Int) (rem?12?12 Int) (|k'?13?13| Int)
            (|i'?14?14| Int) (K?15?15 Int) (|k'?16?16| Int) (|i'?17?17| Int)
            (|tmp___0'?18?18| Int) (|y'?19?19| Int) (|x'?20?20| Int)
            (havoc?21?21 Int) (tmp___0?22?22 Int) (w?23?23 Int) (z?24?24 Int)
            (standardize_int?25 Int) (standardize_int?26 Int)
            (quotient_integralized?27 Int) (quotient_integralized?28 Int))
         (and (<= (- z?24?24) 0)
                (or (<= (+ havoc?21?21 1) 0) (<= (+ (- havoc?21?21) 1) 0))
                (= (+ (- |i'?14?14|) K?15?15 z?24?24) 0)
                (= (+ (- |k'?13?13|) K?15?15) 0)
                (or (and (= K?15?15 0) (= (- |k'?13?13|) 0)
                           (= (+ (- |i'?14?14|) z?24?24) 0))
                      (and (<= (+ (- K?15?15) 1) 0)
                             (<= (+ (- w?23?23) z?24?24 1) 0)
                             (<= (- z?24?24) 0) (<= (+ (- |k'?13?13|) 1) 0)
                             (<= (+ (- |i'?14?14|) 1) 0)
                             (<= (+ (- w?23?23) |i'?14?14|) 0)))
                (<= (- K?15?15) 0) (<= (- |k'?13?13|) 0)
                (<= (- |i'?14?14|) 0) (<= (+ w?23?23 (- |i'?14?14|)) 0)
                (or (and (or (<= z?24?24 0)
                               (and (<= (- rem?12?12) 0)
                                      (or (<= rem?12?12 0)
                                            (<= (+ (- rem?12?12) 2) 0))
                                      (or (<= (+ rem?12?12 -1) 0)
                                            (<= (+ rem?12?12 1) 0))
                                      (= standardize_int?25 quotient_integralized?27)))
                           (= (+ (- phi_x?11?11) z?24?24) 0)
                           (= (+ (- phi_y?10?10) |k'?13?13|) 0))
                      (and (= standardize_int?26 quotient_integralized?28)
                             (<= (- z?24?24) 0)
                             (= (+ (- phi_x?11?11) z?24?24 1) 0)
                             (= (+ (- phi_y?10?10) |k'?13?13| -1) 0)))
                (= (+ (- |x'?7?7|) (* -3 |y'?8?8|) (* -4 K?9?9)
                        (* 3 phi_y?10?10) phi_x?11?11) 0)
                (<= (+ |y'?8?8| K?9?9 (- phi_y?10?10)) 0)
                (<= (+ (- |y'?8?8|) (* -2 K?9?9) phi_y?10?10) 0)
                (or (and (= K?9?9 0)
                           (= (+ (- |tmp___0'?6?6|) tmp___0?22?22) 0)
                           (= (+ (- |y'?8?8|) phi_y?10?10) 0)
                           (= (+ (- |x'?7?7|) phi_x?11?11) 0))
                      (<= (+ (- K?9?9) 1) 0)) (<= (- K?9?9) 0)
                (= havoc?5?5 0) (= (+ |tmp___1'?1?1| (- havoc?21?21)) 0)
                (= (+ |tmp___0'?18?18| (- havoc?5?5)) 0)
                (= (+ |k'?16?16| (- |k'?13?13|)) 0)
                (= (+ |j___0'?2?2| (- w?23?23)) 0)
                (= (+ |i'?17?17| (- |i'?14?14|)) 0)
                (= (+ |w'?3?3| (- |x'?7?7|) (- |y'?8?8|) -1) 0)
                (= (+ |z'?4?4| (- z?24?24) -1) 0)
                (= (+ |y'?19?19| (- |y'?8?8|)) 0)
                (= (+ |x'?20?20| (- |x'?7?7|)) 0)
                (= (+ term_to_project_onto7_integralized
                        (- (+ |x'?20?20| (- x)))) 0)
                (= (+ term_to_project_onto6_integralized
                        (- (+ |y'?19?19| (- y)))) 0)
                (= (+ term_to_project_onto5_integralized
                        (- (+ |z'?4?4| (- z?24?24)))) 0)
                (= (+ term_to_project_onto4_integralized
                        (- (+ |w'?3?3| (- w?23?23)))) 0)
                (= (+ term_to_project_onto3_integralized
                        (- (+ |i'?17?17| (- i)))) 0)
                (= (+ term_to_project_onto2_integralized
                        (- (+ |j___0'?2?2| (- j___0)))) 0)
                (= (+ term_to_project_onto1_integralized
                        (- (+ |k'?16?16| (- k)))) 0)
                (= (+ term_to_project_onto0_integralized
                        (- (+ |tmp___0'?18?18| (- tmp___0?22?22)))) 0)
                (= (+ term_to_project_onto_integralized
                        (- (+ |tmp___1'?1?1| (- tmp___1)))) 0)
                (= (+ z?24?24 -1) (* 2 quotient_integralized?28))
                (= (+ z?24?24 (- rem?12?12)) (* 2 quotient_integralized?27)))))
(check-sat)